p cnf 17 20
-14 -14 -15 0
9 -11 9 0
12 4 -14 0
15 -17 -17 0
12 -10 -9 0
-2 1 1 0
1 -1 5 0
-10 -1 8 0
-16 -2 7 0
13 -9 9 0
-14 -3 -17 0
9 9 -2 0
-1 1 4 0
-14 -1 7 0
14 -10 3 0
-9 3 -9 0
-6 1 4 0
2 -6 4 0
-4 9 -16 0
-8 2 10 0
